c turning on binary mode checking
c parsing input formula with 202048 variables and 780985 clauses
c finished parsing, read 2126690 bytes from proof file
c detected empty clause; start verification via backward checking
c 1735 of 780985 clauses in core                            
c 548 of 85340 lemmas in core using 12445 resolution steps
c 0 RAT lemmas in core; 36 redundant literals in core lemmas
s VERIFIED
c verification time: 0.872 seconds
